c Generated with `cnfgen`
c (C) 2012-2019 Massimo Lauria <massimo.lauria@uniroma1.it>
c https://massimolauria.net/cnfgen
c
c COMMAND LINE: cnfgen --seed 1 -o ./tseitin/tseitin.grid8.s1.cnf tseitin --grid 8 8 --savegraph ./tseitin/tseitin.grid8.s1.graph --graphformat dot --charge randomeven
c
p cnf 112 392
1 2 0
-1 -2 0
1 3 4 0
1 -3 -4 0
-1 3 -4 0
-1 -3 4 0
3 5 -6 0
3 -5 6 0
-3 5 6 0
-3 -5 -6 0
5 7 -8 0
5 -7 8 0
-5 7 8 0
-5 -7 -8 0
7 9 10 0
7 -9 -10 0
-7 9 -10 0
-7 -9 10 0
9 11 12 0
9 -11 -12 0
-9 11 -12 0
-9 -11 12 0
11 13 14 0
11 -13 -14 0
-11 13 -14 0
-11 -13 14 0
13 -15 0
-13 15 0
2 16 -17 0
2 -16 17 0
-2 16 17 0
-2 -16 -17 0
4 16 18 -19 0
4 16 -18 19 0
4 -16 18 19 0
4 -16 -18 -19 0
-4 16 18 19 0
-4 16 -18 -19 0
-4 -16 18 -19 0
-4 -16 -18 19 0
6 18 20 -21 0
6 18 -20 21 0
6 -18 20 21 0
6 -18 -20 -21 0
-6 18 20 21 0
-6 18 -20 -21 0
-6 -18 20 -21 0
-6 -18 -20 21 0
8 20 22 -23 0
8 20 -22 23 0
8 -20 22 23 0
8 -20 -22 -23 0
-8 20 22 23 0
-8 20 -22 -23 0
-8 -20 22 -23 0
-8 -20 -22 23 0
10 22 24 -25 0
10 22 -24 25 0
10 -22 24 25 0
10 -22 -24 -25 0
-10 22 24 25 0
-10 22 -24 -25 0
-10 -22 24 -25 0
-10 -22 -24 25 0
12 24 26 -27 0
12 24 -26 27 0
12 -24 26 27 0
12 -24 -26 -27 0
-12 24 26 27 0
-12 24 -26 -27 0
-12 -24 26 -27 0
-12 -24 -26 27 0
14 26 28 -29 0
14 26 -28 29 0
14 -26 28 29 0
14 -26 -28 -29 0
-14 26 28 29 0
-14 26 -28 -29 0
-14 -26 28 -29 0
-14 -26 -28 29 0
15 28 -30 0
15 -28 30 0
-15 28 30 0
-15 -28 -30 0
17 31 32 0
17 -31 -32 0
-17 31 -32 0
-17 -31 32 0
19 31 33 34 0
19 31 -33 -34 0
19 -31 33 -34 0
19 -31 -33 34 0
-19 31 33 -34 0
-19 31 -33 34 0
-19 -31 33 34 0
-19 -31 -33 -34 0
21 33 35 -36 0
21 33 -35 36 0
21 -33 35 36 0
21 -33 -35 -36 0
-21 33 35 36 0
-21 33 -35 -36 0
-21 -33 35 -36 0
-21 -33 -35 36 0
23 35 37 38 0
23 35 -37 -38 0
23 -35 37 -38 0
23 -35 -37 38 0
-23 35 37 -38 0
-23 35 -37 38 0
-23 -35 37 38 0
-23 -35 -37 -38 0
25 37 39 40 0
25 37 -39 -40 0
25 -37 39 -40 0
25 -37 -39 40 0
-25 37 39 -40 0
-25 37 -39 40 0
-25 -37 39 40 0
-25 -37 -39 -40 0
27 39 41 42 0
27 39 -41 -42 0
27 -39 41 -42 0
27 -39 -41 42 0
-27 39 41 -42 0
-27 39 -41 42 0
-27 -39 41 42 0
-27 -39 -41 -42 0
29 41 43 44 0
29 41 -43 -44 0
29 -41 43 -44 0
29 -41 -43 44 0
-29 41 43 -44 0
-29 41 -43 44 0
-29 -41 43 44 0
-29 -41 -43 -44 0
30 43 45 0
30 -43 -45 0
-30 43 -45 0
-30 -43 45 0
32 46 -47 0
32 -46 47 0
-32 46 47 0
-32 -46 -47 0
34 46 48 -49 0
34 46 -48 49 0
34 -46 48 49 0
34 -46 -48 -49 0
-34 46 48 49 0
-34 46 -48 -49 0
-34 -46 48 -49 0
-34 -46 -48 49 0
36 48 50 -51 0
36 48 -50 51 0
36 -48 50 51 0
36 -48 -50 -51 0
-36 48 50 51 0
-36 48 -50 -51 0
-36 -48 50 -51 0
-36 -48 -50 51 0
38 50 52 -53 0
38 50 -52 53 0
38 -50 52 53 0
38 -50 -52 -53 0
-38 50 52 53 0
-38 50 -52 -53 0
-38 -50 52 -53 0
-38 -50 -52 53 0
40 52 54 -55 0
40 52 -54 55 0
40 -52 54 55 0
40 -52 -54 -55 0
-40 52 54 55 0
-40 52 -54 -55 0
-40 -52 54 -55 0
-40 -52 -54 55 0
42 54 56 57 0
42 54 -56 -57 0
42 -54 56 -57 0
42 -54 -56 57 0
-42 54 56 -57 0
-42 54 -56 57 0
-42 -54 56 57 0
-42 -54 -56 -57 0
44 56 58 -59 0
44 56 -58 59 0
44 -56 58 59 0
44 -56 -58 -59 0
-44 56 58 59 0
-44 56 -58 -59 0
-44 -56 58 -59 0
-44 -56 -58 59 0
45 58 60 0
45 -58 -60 0
-45 58 -60 0
-45 -58 60 0
47 61 -62 0
47 -61 62 0
-47 61 62 0
-47 -61 -62 0
49 61 63 -64 0
49 61 -63 64 0
49 -61 63 64 0
49 -61 -63 -64 0
-49 61 63 64 0
-49 61 -63 -64 0
-49 -61 63 -64 0
-49 -61 -63 64 0
51 63 65 66 0
51 63 -65 -66 0
51 -63 65 -66 0
51 -63 -65 66 0
-51 63 65 -66 0
-51 63 -65 66 0
-51 -63 65 66 0
-51 -63 -65 -66 0
53 65 67 -68 0
53 65 -67 68 0
53 -65 67 68 0
53 -65 -67 -68 0
-53 65 67 68 0
-53 65 -67 -68 0
-53 -65 67 -68 0
-53 -65 -67 68 0
55 67 69 70 0
55 67 -69 -70 0
55 -67 69 -70 0
55 -67 -69 70 0
-55 67 69 -70 0
-55 67 -69 70 0
-55 -67 69 70 0
-55 -67 -69 -70 0
57 69 71 72 0
57 69 -71 -72 0
57 -69 71 -72 0
57 -69 -71 72 0
-57 69 71 -72 0
-57 69 -71 72 0
-57 -69 71 72 0
-57 -69 -71 -72 0
59 71 73 -74 0
59 71 -73 74 0
59 -71 73 74 0
59 -71 -73 -74 0
-59 71 73 74 0
-59 71 -73 -74 0
-59 -71 73 -74 0
-59 -71 -73 74 0
60 73 75 0
60 -73 -75 0
-60 73 -75 0
-60 -73 75 0
62 76 77 0
62 -76 -77 0
-62 76 -77 0
-62 -76 77 0
64 76 78 -79 0
64 76 -78 79 0
64 -76 78 79 0
64 -76 -78 -79 0
-64 76 78 79 0
-64 76 -78 -79 0
-64 -76 78 -79 0
-64 -76 -78 79 0
66 78 80 -81 0
66 78 -80 81 0
66 -78 80 81 0
66 -78 -80 -81 0
-66 78 80 81 0
-66 78 -80 -81 0
-66 -78 80 -81 0
-66 -78 -80 81 0
68 80 82 -83 0
68 80 -82 83 0
68 -80 82 83 0
68 -80 -82 -83 0
-68 80 82 83 0
-68 80 -82 -83 0
-68 -80 82 -83 0
-68 -80 -82 83 0
70 82 84 85 0
70 82 -84 -85 0
70 -82 84 -85 0
70 -82 -84 85 0
-70 82 84 -85 0
-70 82 -84 85 0
-70 -82 84 85 0
-70 -82 -84 -85 0
72 84 86 87 0
72 84 -86 -87 0
72 -84 86 -87 0
72 -84 -86 87 0
-72 84 86 -87 0
-72 84 -86 87 0
-72 -84 86 87 0
-72 -84 -86 -87 0
74 86 88 -89 0
74 86 -88 89 0
74 -86 88 89 0
74 -86 -88 -89 0
-74 86 88 89 0
-74 86 -88 -89 0
-74 -86 88 -89 0
-74 -86 -88 89 0
75 88 90 0
75 -88 -90 0
-75 88 -90 0
-75 -88 90 0
77 91 92 0
77 -91 -92 0
-77 91 -92 0
-77 -91 92 0
79 91 93 94 0
79 91 -93 -94 0
79 -91 93 -94 0
79 -91 -93 94 0
-79 91 93 -94 0
-79 91 -93 94 0
-79 -91 93 94 0
-79 -91 -93 -94 0
81 93 95 -96 0
81 93 -95 96 0
81 -93 95 96 0
81 -93 -95 -96 0
-81 93 95 96 0
-81 93 -95 -96 0
-81 -93 95 -96 0
-81 -93 -95 96 0
83 95 97 98 0
83 95 -97 -98 0
83 -95 97 -98 0
83 -95 -97 98 0
-83 95 97 -98 0
-83 95 -97 98 0
-83 -95 97 98 0
-83 -95 -97 -98 0
85 97 99 -100 0
85 97 -99 100 0
85 -97 99 100 0
85 -97 -99 -100 0
-85 97 99 100 0
-85 97 -99 -100 0
-85 -97 99 -100 0
-85 -97 -99 100 0
87 99 101 -102 0
87 99 -101 102 0
87 -99 101 102 0
87 -99 -101 -102 0
-87 99 101 102 0
-87 99 -101 -102 0
-87 -99 101 -102 0
-87 -99 -101 102 0
89 101 103 -104 0
89 101 -103 104 0
89 -101 103 104 0
89 -101 -103 -104 0
-89 101 103 104 0
-89 101 -103 -104 0
-89 -101 103 -104 0
-89 -101 -103 104 0
90 103 -105 0
90 -103 105 0
-90 103 105 0
-90 -103 -105 0
92 106 0
-92 -106 0
94 106 -107 0
94 -106 107 0
-94 106 107 0
-94 -106 -107 0
96 107 -108 0
96 -107 108 0
-96 107 108 0
-96 -107 -108 0
98 108 -109 0
98 -108 109 0
-98 108 109 0
-98 -108 -109 0
100 109 110 0
100 -109 -110 0
-100 109 -110 0
-100 -109 110 0
102 110 -111 0
102 -110 111 0
-102 110 111 0
-102 -110 -111 0
104 111 -112 0
104 -111 112 0
-104 111 112 0
-104 -111 -112 0
105 112 0
-105 -112 0
